Version identifier: 22.1.0.0 | 2022-03-09 | 1a383f8ce
CPXPARAM_Threads                                 1
CPXPARAM_MIP_Strategy_VariableSelect             3
CPXPARAM_TimeLimit                               600
Tried aggregator 1 time.
MIP Presolve eliminated 3 rows and 924 columns.
Reduced MIP has 2165 rows, 6468 columns, and 27335 nonzeros.
Reduced MIP has 4930 binaries, 1538 generals, 0 SOSs, and 0 indicators.
Presolve time = 0.02 sec. (12.66 ticks)
Found incumbent of value 13.774789 after 0.05 sec. (32.26 ticks)
Probing fixed 0 vars, tightened 1 bounds.
Probing time = 0.01 sec. (4.19 ticks)
Tried aggregator 1 time.
Detecting symmetries...
Reduced MIP has 2165 rows, 6468 columns, and 27335 nonzeros.
Reduced MIP has 4931 binaries, 1537 generals, 0 SOSs, and 0 indicators.
Presolve time = 0.02 sec. (14.59 ticks)
Probing time = 0.00 sec. (3.47 ticks)
Clique table members: 371.
MIP emphasis: balance optimality and feasibility.
MIP search method: dynamic search.
Parallel mode: none, using 1 thread.
Root relaxation solution time = 0.04 sec. (27.43 ticks)

        Nodes                                         Cuts/
   Node  Left     Objective  IInf  Best Integer    Best Bound    ItCnt     Gap

*     0+    0                           13.7748        0.0000           100.00%
      0     0        0.0000   385       13.7748        0.0000      771  100.00%
*     0+    0                            0.0000        0.0000             0.00%
      0     0        cutoff              0.0000        0.0000      771    0.00%
Elapsed time = 0.34 sec. (256.04 ticks, tree = 0.01 MB, solutions = 2)

Root node processing (before b&c):
  Real time             =    0.34 sec. (256.31 ticks)
Sequential b&c:
  Real time             =    0.00 sec. (0.00 ticks)
                          ------------
Total (root+branch&cut) =    0.34 sec. (256.31 ticks)
Violation-free sequence bound:	308
Unscheduled:	0
Status:	Optimal
Time:	0.35
Sequence:
	9
	9
	6
	9
	9
	9
	6
	9
	1
	4
	6
	9
	9
	0
	9
	6
	0
	5
	9
	6
	0
	5
	4
	3
	0
	5
	9
	6
	4
	1
	0
	4
	6
	0
	9
	5
	0
	6
	9
	5
	0
	6
	4
	0
	9
	6
	9
	9
	1
	9
	9
	0
	6
	9
	9
	9
	9
	9
	6
	9
	9
	5
	9
	6
	2
	5
	9
	6
	0
	5
	9
	6
	0
	3
	9
	6
	0
	5
	9
	6
	0
	5
	4
	9
	6
	2
	10
	9
	5
	2
	6
	4
	3
	2
	6
	4
	1
	4
	6
	0
	5
	9
	6
	2
	4
	4
	10
	0
	5
	9
	5
	4
	9
	6
	9
	5
	2
	5
	9
	6
	0
	4
	5
	0
	6
	9
	0
	4
	6
	9
	0
	5
	9
	6
	9
	5
	9
	5
	0
	6
	9
	1
	4
	6
	0
	5
	9
	5
	9
	6
	2
	1
	9
	6
	9
	9
	9
	9
	6
	9
	9
	9
	9
	9
	9
	5
	9
	6
	9
	9
	9
	6
	9
	9
	9
	9
	9
	6
	9
	4
	9
	6
	9
	4
	9
	9
	9
	4
	9
	4
	9
	4
	4
	1
	4
	5
	9
	9
	5
	9
	9
	10
	9
	1
	9
	3
	9
	9
	1
	9
	9
	9
	6
	9
	9
	9
	6
	9
	5
	4
	9
	4
	6
	9
	5
	9
	4
	6
	9
	5
	9
	5
	9
	9
	6
	9
	10
	9
	5
	9
	9
	5
	9
	5
	9
	6
	4
	9
	9
	4
	6
	9
	1
	4
	0
	6
	9
	4
	4
	2
	6
	4
	9
	4
	6
	9
	5
	9
	6
	9
	9
	9
	6
	9
	9
	9
	9
	9
	9
	9
	6
	9
	9
	9
	9
	6
	9
	5
	9
	6
	9
	9
	9
	9
	5
	9
	6
	9
	9
	9
	9
	6
	9
	9
	5
	4
	0
	6
Violation-free sequence:
	9
	9
	6
	9
	9
	9
	6
	9
	1
	4
	6
	9
	9
	0
	9
	6
	0
	5
	9
	6
	0
	5
	4
	3
	0
	5
	9
	6
	4
	1
	0
	4
	6
	0
	9
	5
	0
	6
	9
	5
	0
	6
	4
	0
	9
	6
	9
	9
	1
	9
	9
	0
	6
	9
	9
	9
	9
	9
	6
	9
	9
	5
	9
	6
	2
	5
	9
	6
	0
	5
	9
	6
	0
	3
	9
	6
	0
	5
	9
	6
	0
	5
	4
	9
	6
	2
	10
	9
	5
	2
	6
	4
	3
	2
	6
	4
	1
	4
	6
	0
	5
	9
	6
	2
	4
	4
	10
	0
	5
	9
	5
	4
	9
	6
	9
	5
	2
	5
	9
	6
	0
	4
	5
	0
	6
	9
	0
	4
	6
	9
	0
	5
	9
	6
	9
	5
	9
	5
	0
	6
	9
	1
	4
	6
	0
	5
	9
	5
	9
	6
	2
	1
	9
	6
	9
	9
	9
	9
	6
	9
	9
	9
	9
	9
	9
	5
	9
	6
	9
	9
	9
	6
	9
	9
	9
	9
	9
	6
	9
	4
	9
	6
	9
	4
	9
	9
	9
	4
	9
	4
	9
	4
	4
	1
	4
	5
	9
	9
	5
	9
	9
	10
	9
	1
	9
	3
	9
	9
	1
	9
	9
	9
	6
	9
	9
	9
	6
	9
	5
	4
	9
	4
	6
	9
	5
	9
	4
	6
	9
	5
	9
	5
	9
	9
	6
	9
	10
	9
	5
	9
	9
	5
	9
	5
	9
	6
	4
	9
	9
	4
	6
	9
	1
	4
	0
	6
	9
	4
	4
	2
	6
	4
	9
	4
	6
	9
	5
	9
	6
	9
	9
	9
	6
	9
	9
	9
	9
	9
	9
	9
	6
	9
	9
	9
	9
	6
	9
	5
	9
	6
	9
	9
	9
	9
	5
	9
	6
	9
	9
	9
	9
	6
	9
	9
	5
	4
	0
	6
